16
2679.0 1750.1
1412.0 2871.6
1181.0 2974.1
78.0 3199.0
-22.0 3199.9
-53.0 3199.6
-277.0 3188.0
-776.0 3104.5
-1071.0 -3015.5
-626.0 -3138.2
-160.0 -3196.0
-128.0 -3197.4
92.0 -3198.7
312.0 -3184.8
439.0 -3169.7
1085.0 -3010.4
